50, 600
20, 44
38, 18
12, 48
41, 27
5, 32
16, 18
32, 6
49, 47
26, 20
32, 17
19, 30
33, 16
38, 26
43, 35
30, 3
4, 38
44, 24
47, 1
28, 13
23, 13
19, 40
19, 5
18, 16
25, 6
5, 50
42, 30
42, 30
21, 21
11, 25
22, 46
9, 44
19, 29
37, 26
8, 36
6, 27
20, 31
35, 35
50, 27
38, 33
19, 10
47, 21
21, 33
13, 10
11, 11
28, 14
20, 15
19, 28
27, 11
45, 13
10, 2
